p cnf 40 221
-20 0
-37 14 0
-38 26 0
-39 19 0
-40 21 0
-1 0
-2 0
-3 0
-4 0
-5 0
-6 0
-7 0
-8 0
-9 0
-10 0
-11 0
-12 0
-13 0
-14 37 0
-15 0
-16 0
-17 0
-18 0
-19 39 0
-21 40 0
-22 0
-23 0
-24 0
-25 0
-26 38 0
-27 0
-28 0
-29 0
-30 0
-31 0
-32 0
-33 0
-34 0
-35 0
-36 0
37 38 39 40 0
-37 -38 0
-37 -39 0
-37 -40 0
-38 -39 0
-38 -40 0
-39 -40 0
-1 -7 0
-1 -2 0
-1 -8 0
-2 -8 0
-2 -3 0
-2 -7 0
-2 -9 0
-3 -9 0
-3 -4 0
-3 -8 0
-3 -10 0
-4 -10 0
-4 -5 0
-4 -9 0
-4 -11 0
-5 -11 0
-5 -6 0
-5 -10 0
-5 -12 0
-6 -12 0
-6 -11 0
-7 -13 0
-7 -8 0
-7 -14 0
-8 -14 0
-8 -9 0
-8 -13 0
-8 -15 0
-9 -15 0
-9 -10 0
-9 -14 0
-9 -16 0
-10 -16 0
-10 -11 0
-10 -15 0
-10 -17 0
-11 -17 0
-11 -12 0
-11 -16 0
-11 -18 0
-12 -18 0
-12 -17 0
-13 -19 0
-13 -14 0
-14 -15 0
-14 -19 0
-14 -21 0
-15 -21 0
-15 -16 0
-15 -22 0
-16 -22 0
-16 -17 0
-16 -21 0
-16 -23 0
-17 -23 0
-17 -18 0
-17 -22 0
-17 -24 0
-18 -24 0
-18 -23 0
-19 -25 0
-19 -26 0
-21 -27 0
-21 -22 0
-21 -26 0
-21 -28 0
-22 -28 0
-22 -23 0
-22 -27 0
-22 -29 0
-23 -29 0
-23 -24 0
-23 -28 0
-23 -30 0
-24 -30 0
-24 -29 0
-25 -31 0
-25 -26 0
-25 -32 0
-26 -32 0
-26 -27 0
-26 -31 0
-26 -33 0
-27 -33 0
-27 -28 0
-27 -32 0
-27 -34 0
-28 -34 0
-28 -29 0
-28 -33 0
-28 -35 0
-29 -35 0
-29 -30 0
-29 -34 0
-29 -36 0
-30 -36 0
-30 -35 0
-31 -32 0
-32 -33 0
-33 -34 0
-34 -35 0
-35 -36 0
-1 0
-2 0
-3 0
-4 0
-5 0
-6 0
-7 0
-8 0
-9 0
-10 0
-11 0
-12 0
-13 0
-14 0
-15 0
-16 0
-17 0
-18 0
-19 0
-20 0
-21 0
-22 0
-23 0
-24 0
-25 0
-26 0
-27 0
-28 0
-29 0
-30 0
-31 0
-32 0
-33 0
-34 0
-35 0
-36 0
-1 0
-7 0
-13 0
-19 0
-25 0
-31 0
-2 0
-8 0
-14 0
-20 0
-26 0
-32 0
-3 0
-9 0
-15 0
-21 0
-27 0
-33 0
-4 0
-10 0
-16 0
-22 0
-28 0
-34 0
-5 0
-11 0
-17 0
-23 0
-29 0
-35 0
-6 0
-12 0
-18 0
-24 0
-30 0
-36 0
